letting n =  10
letting blocks =  [[1, 4], [1, 5], [1, 7], [1, 8], [1, 9], [1, 10], [2, 1], [2, 2], [2, 3], [2, 5], [2, 6], [2, 7], [3, 1], [3, 3], [3, 4], [3, 6], [3, 8], [3, 10], [4, 1], [4, 2], [4, 5], [4, 6], [4, 7], [4, 9], [5, 3], [5, 4], [5, 5], [5, 6], [5, 10], [6, 2], [6, 3], [6, 4], [6, 7], [6, 9], [6, 10], [7, 5], [7, 8], [7, 9], [8, 1], [8, 2], [8, 4], [8, 7], [8, 9], [8, 10], [9, 1], [9, 3], [9, 4], [9, 5], [9, 6], [9, 7], [10, 1], [10, 2], [10, 3], [10, 8], [10, 9], [10, 10]]
